100
49 31 67 -85 22 -85 39 77 84 -75 62 -53 47 -27 -86 77 -41 -70 -95 21 -34 3 -51 57 89 -58 28 17 -63 39 74 49 -76 86 -14 -89 94 -36 60 65 -81 -11 -53 64 70 39 69 -85 -11 -87 -75 -69 62 -26 9 -40 -3 -49 19 -51 -25 -9 -91 78 -46 -52 7 -74 57 41 -46 -51 -26 -37 -23 -34 -32 76 -73 70 -4 33 -60 58 -82 -19 -62 63 65 -75 -69 -55 60 46 -99 -35 -88 22 -75 -26
-49 -31 -67 85 -22 85 -39 -77 -84 75 -62 53 -47 27 86 -77 41 70 95 -21 34 -3 51 -57 -89 58 -28 -17 63 -39 -74 -49 76 -86 14 89 -94 36 -60 -65 81 11 53 -64 -70 -39 -69 85 11 87 75 69 -62 26 -9 40 3 49 -19 51 25 9 91 -78 46 52 -7 74 -57 -41 46 51 26 37 23 34 32 -76 73 -70 4 -33 60 -58 82 19 62 -63 -65 75 69 55 -60 -46 99 35 88 -22 75 26
